742793
728388
697047
697047
697047
697047
697047
697047
697047
672315
672315
672315
672315
672315
672315
672315
672315
672315
671619
657013
657013
650839
649273
649273
648555
648555
646478
646478
641096
633208
633208
633208
632159
632159
632159
618193
618193
618193
618193
618193
618193
618193
618193
616826
616826
616826
607054
606690
606690
604515
592513
592513
589822
589822
589822
589822
589822
586205
583728
583728
583448
583448
575614
575614
574056
574056
569388
569388
569388
565387
565387
565158
565158
565158
563188
563188
562474
562474
559650
553336
553336
553336
553336
549737
545643
545643
545643
545643
528449
528449
528449
528449
528449
528449
528202
528202
523775
523775
523775
519601
